QPLIB_0682
LGQ
maximize
261 # number of variables
597 # number of constraints
0.0 # default value for linear coefficients in objective
140 # number of non-default linear coefficients in objective
1 -0.45
2 -0.45
3 -0.45
4 -0.67
5 -0.67
6 -0.67
7 -1.03
8 -1.03
9 -1.03
10 -1.75
11 -1.75
12 -1.75
13 -1.57
14 -1.57
15 -1.57
16 -1.05
17 -1.05
18 -1.05
19 -0.13
20 -0.13
21 -0.13
22 -0.47
23 -0.47
24 -0.47
25 -0.34
26 -0.34
27 -0.34
28 8.81
29 8.81
30 9.07
31 9.07
32 -0.6
33 -0.6
34 -0.6
35 -0.65
36 -0.65
37 -0.65
38 -0.75
39 -0.75
40 -0.75
41 9.52
42 9.52
43 9.52
44 8.69
45 8.69
46 -0.83
47 -0.83
48 -0.83
49 -1.0
50 -1.0
51 -1.0
52 -0.44
53 -0.44
54 -0.44
55 8.64
56 8.64
57 8.83
58 8.83
59 -0.87
60 -0.87
61 -0.87
62 -0.4
63 -0.4
64 -0.4
65 -0.8
66 -0.8
67 -0.8
68 8.69
69 8.69
70 9.34
71 9.34
104 -0.2
105 -0.2
106 -0.2
107 -0.62
108 -0.62
109 -0.62
110 -0.35
111 -0.35
112 -0.35
113 -0.76
114 -0.76
115 -0.76
116 -0.38
117 -0.38
118 -0.38
119 -0.08
120 -0.08
121 -0.08
122 -0.93
123 -0.93
124 -0.93
125 -0.57
126 -0.57
127 -0.57
128 -0.01
129 -0.01
130 -0.01
131 -0.16
132 -0.16
133 -0.31
134 -0.31
135 -0.17
136 -0.17
137 -0.17
138 -0.26
139 -0.26
140 -0.26
141 -0.69
142 -0.69
143 -0.69
144 -0.45
145 -0.45
146 -0.45
147 -0.23
148 -0.23
149 -0.15
150 -0.15
151 -0.15
152 -0.54
153 -0.54
154 -0.54
155 -0.08
156 -0.08
157 -0.08
158 -0.11
159 -0.11
160 -0.82
161 -0.82
162 -0.82
163 -0.08
164 -0.08
165 -0.08
166 -0.26
167 -0.26
168 -0.26
169 -0.43
170 -0.43
171 -0.18
172 -0.18
0.0 # objective constant
672 # number of quadratic terms in all constraints
502 198 175 2.0
503 200 176 2.0
504 202 177 2.0
505 204 178 2.0
506 206 175 2.0
507 208 176 2.0
508 210 177 2.0
509 212 178 2.0
510 214 175 2.0
511 216 176 2.0
512 218 177 2.0
513 220 178 2.0
514 222 175 2.0
515 224 176 2.0
516 226 177 2.0
517 228 178 2.0
518 230 175 2.0
519 232 176 2.0
520 234 177 2.0
521 236 178 2.0
522 238 175 2.0
523 240 176 2.0
524 242 177 2.0
525 244 178 2.0
526 246 175 2.0
527 248 176 2.0
528 250 177 2.0
529 252 178 2.0
530 254 175 2.0
531 256 176 2.0
532 258 177 2.0
533 260 178 2.0
534 198 20 2.0
534 198 23 2.0
534 198 26 2.0
534 198 28 2.0
534 198 30 2.0
534 200 33 -2.0
534 202 47 -2.0
534 204 60 -2.0
534 198 175 -2.0
534 199 184 2.0
535 199 21 2.0
535 199 24 2.0
535 199 27 2.0
535 199 29 2.0
535 199 31 2.0
535 201 34 -2.0
535 203 48 -2.0
535 205 61 -2.0
535 185 72 2.0
535 199 184 -2.0
536 198 20 -2.0
536 200 33 2.0
536 200 36 2.0
536 200 39 2.0
536 200 42 2.0
536 200 44 2.0
536 202 50 -2.0
536 204 63 -2.0
536 200 176 -2.0
536 201 186 2.0
537 199 21 -2.0
537 201 34 2.0
537 201 37 2.0
537 201 40 2.0
537 201 43 2.0
537 201 45 2.0
537 203 51 -2.0
537 205 64 -2.0
537 187 73 2.0
537 201 186 -2.0
538 198 23 -2.0
538 200 36 -2.0
538 202 47 2.0
538 202 50 2.0
538 202 53 2.0
538 202 55 2.0
538 202 57 2.0
538 204 66 -2.0
538 202 177 -2.0
538 203 188 2.0
539 199 24 -2.0
539 201 37 -2.0
539 203 48 2.0
539 203 51 2.0
539 203 54 2.0
539 203 56 2.0
539 203 58 2.0
539 205 67 -2.0
539 189 74 2.0
539 203 188 -2.0
540 198 26 -2.0
540 200 39 -2.0
540 202 53 -2.0
540 204 60 2.0
540 204 63 2.0
540 204 66 2.0
540 204 68 2.0
540 204 70 2.0
540 204 178 -2.0
540 205 190 2.0
541 199 27 -2.0
541 201 40 -2.0
541 203 54 -2.0
541 205 61 2.0
541 205 64 2.0
541 205 67 2.0
541 205 69 2.0
541 205 71 2.0
541 191 75 2.0
541 205 190 -2.0
542 206 20 2.0
542 206 23 2.0
542 206 26 2.0
542 206 28 2.0
542 206 30 2.0
542 208 33 -2.0
542 210 47 -2.0
542 212 60 -2.0
542 206 175 -2.0
542 207 184 2.0
543 207 21 2.0
543 207 24 2.0
543 207 27 2.0
543 207 29 2.0
543 207 31 2.0
543 209 34 -2.0
543 211 48 -2.0
543 213 61 -2.0
543 185 76 2.0
543 207 184 -2.0
544 206 20 -2.0
544 208 33 2.0
544 208 36 2.0
544 208 39 2.0
544 208 42 2.0
544 208 44 2.0
544 210 50 -2.0
544 212 63 -2.0
544 208 176 -2.0
544 209 186 2.0
545 207 21 -2.0
545 209 34 2.0
545 209 37 2.0
545 209 40 2.0
545 209 43 2.0
545 209 45 2.0
545 211 51 -2.0
545 213 64 -2.0
545 187 77 2.0
545 209 186 -2.0
546 206 23 -2.0
546 208 36 -2.0
546 210 47 2.0
546 210 50 2.0
546 210 53 2.0
546 210 55 2.0
546 210 57 2.0
546 212 66 -2.0
546 210 177 -2.0
546 211 188 2.0
547 207 24 -2.0
547 209 37 -2.0
547 211 48 2.0
547 211 51 2.0
547 211 54 2.0
547 211 56 2.0
547 211 58 2.0
547 213 67 -2.0
547 189 78 2.0
547 211 188 -2.0
548 206 26 -2.0
548 208 39 -2.0
548 210 53 -2.0
548 212 60 2.0
548 212 63 2.0
548 212 66 2.0
548 212 68 2.0
548 212 70 2.0
548 212 178 -2.0
548 213 190 2.0
549 207 27 -2.0
549 209 40 -2.0
549 211 54 -2.0
549 213 61 2.0
549 213 64 2.0
549 213 67 2.0
549 213 69 2.0
549 213 71 2.0
549 191 79 2.0
549 213 190 -2.0
550 214 20 2.0
550 214 23 2.0
550 214 26 2.0
550 214 28 2.0
550 214 30 2.0
550 216 33 -2.0
550 218 47 -2.0
550 220 60 -2.0
550 214 175 -2.0
550 215 184 2.0
551 215 21 2.0
551 215 24 2.0
551 215 27 2.0
551 215 29 2.0
551 215 31 2.0
551 217 34 -2.0
551 219 48 -2.0
551 221 61 -2.0
551 185 80 2.0
551 215 184 -2.0
552 214 20 -2.0
552 216 33 2.0
552 216 36 2.0
552 216 39 2.0
552 216 42 2.0
552 216 44 2.0
552 218 50 -2.0
552 220 63 -2.0
552 216 176 -2.0
552 217 186 2.0
553 215 21 -2.0
553 217 34 2.0
553 217 37 2.0
553 217 40 2.0
553 217 43 2.0
553 217 45 2.0
553 219 51 -2.0
553 221 64 -2.0
553 187 81 2.0
553 217 186 -2.0
554 214 23 -2.0
554 216 36 -2.0
554 218 47 2.0
554 218 50 2.0
554 218 53 2.0
554 218 55 2.0
554 218 57 2.0
554 220 66 -2.0
554 218 177 -2.0
554 219 188 2.0
555 215 24 -2.0
555 217 37 -2.0
555 219 48 2.0
555 219 51 2.0
555 219 54 2.0
555 219 56 2.0
555 219 58 2.0
555 221 67 -2.0
555 189 82 2.0
555 219 188 -2.0
556 214 26 -2.0
556 216 39 -2.0
556 218 53 -2.0
556 220 60 2.0
556 220 63 2.0
556 220 66 2.0
556 220 68 2.0
556 220 70 2.0
556 220 178 -2.0
556 221 190 2.0
557 215 27 -2.0
557 217 40 -2.0
557 219 54 -2.0
557 221 61 2.0
557 221 64 2.0
557 221 67 2.0
557 221 69 2.0
557 221 71 2.0
557 191 83 2.0
557 221 190 -2.0
558 222 20 -2.0
558 224 33 2.0
558 224 36 2.0
558 224 39 2.0
558 224 42 2.0
558 224 44 2.0
558 226 50 -2.0
558 228 63 -2.0
558 224 176 -2.0
558 225 186 2.0
559 223 21 -2.0
559 225 34 2.0
559 225 37 2.0
559 225 40 2.0
559 225 43 2.0
559 225 45 2.0
559 227 51 -2.0
559 229 64 -2.0
559 187 85 2.0
559 225 186 -2.0
560 222 23 -2.0
560 224 36 -2.0
560 226 47 2.0
560 226 50 2.0
560 226 53 2.0
560 226 55 2.0
560 226 57 2.0
560 228 66 -2.0
560 226 177 -2.0
560 227 188 2.0
561 223 24 -2.0
561 225 37 -2.0
561 227 48 2.0
561 227 51 2.0
561 227 54 2.0
561 227 56 2.0
561 227 58 2.0
561 229 67 -2.0
561 189 86 2.0
561 227 188 -2.0
562 222 26 -2.0
562 224 39 -2.0
562 226 53 -2.0
562 228 60 2.0
562 228 63 2.0
562 228 66 2.0
562 228 68 2.0
562 228 70 2.0
562 228 178 -2.0
562 229 190 2.0
563 223 27 -2.0
563 225 40 -2.0
563 227 54 -2.0
563 229 61 2.0
563 229 64 2.0
563 229 67 2.0
563 229 69 2.0
563 229 71 2.0
563 191 87 2.0
563 229 190 -2.0
564 230 20 2.0
564 230 23 2.0
564 230 26 2.0
564 230 28 2.0
564 230 30 2.0
564 232 33 -2.0
564 234 47 -2.0
564 236 60 -2.0
564 230 175 -2.0
564 231 184 2.0
565 231 21 2.0
565 231 24 2.0
565 231 27 2.0
565 231 29 2.0
565 231 31 2.0
565 233 34 -2.0
565 235 48 -2.0
565 237 61 -2.0
565 185 88 2.0
565 231 184 -2.0
566 230 20 -2.0
566 232 33 2.0
566 232 36 2.0
566 232 39 2.0
566 232 42 2.0
566 232 44 2.0
566 234 50 -2.0
566 236 63 -2.0
566 232 176 -2.0
566 233 186 2.0
567 231 21 -2.0
567 233 34 2.0
567 233 37 2.0
567 233 40 2.0
567 233 43 2.0
567 233 45 2.0
567 235 51 -2.0
567 237 64 -2.0
567 187 89 2.0
567 233 186 -2.0
568 230 23 -2.0
568 232 36 -2.0
568 234 47 2.0
568 234 50 2.0
568 234 53 2.0
568 234 55 2.0
568 234 57 2.0
568 236 66 -2.0
568 234 177 -2.0
568 235 188 2.0
569 231 24 -2.0
569 233 37 -2.0
569 235 48 2.0
569 235 51 2.0
569 235 54 2.0
569 235 56 2.0
569 235 58 2.0
569 237 67 -2.0
569 189 90 2.0
569 235 188 -2.0
570 230 26 -2.0
570 232 39 -2.0
570 234 53 -2.0
570 236 60 2.0
570 236 63 2.0
570 236 66 2.0
570 236 68 2.0
570 236 70 2.0
570 236 178 -2.0
570 237 190 2.0
571 231 27 -2.0
571 233 40 -2.0
571 235 54 -2.0
571 237 61 2.0
571 237 64 2.0
571 237 67 2.0
571 237 69 2.0
571 237 71 2.0
571 191 91 2.0
571 237 190 -2.0
572 238 20 2.0
572 238 23 2.0
572 238 26 2.0
572 238 28 2.0
572 238 30 2.0
572 240 33 -2.0
572 242 47 -2.0
572 244 60 -2.0
572 238 175 -2.0
572 239 184 2.0
573 239 21 2.0
573 239 24 2.0
573 239 27 2.0
573 239 29 2.0
573 239 31 2.0
573 241 34 -2.0
573 243 48 -2.0
573 245 61 -2.0
573 185 92 2.0
573 239 184 -2.0
574 238 20 -2.0
574 240 33 2.0
574 240 36 2.0
574 240 39 2.0
574 240 42 2.0
574 240 44 2.0
574 242 50 -2.0
574 244 63 -2.0
574 240 176 -2.0
574 241 186 2.0
575 239 21 -2.0
575 241 34 2.0
575 241 37 2.0
575 241 40 2.0
575 241 43 2.0
575 241 45 2.0
575 243 51 -2.0
575 245 64 -2.0
575 187 93 2.0
575 241 186 -2.0
576 238 23 -2.0
576 240 36 -2.0
576 242 47 2.0
576 242 50 2.0
576 242 53 2.0
576 242 55 2.0
576 242 57 2.0
576 244 66 -2.0
576 242 177 -2.0
576 243 188 2.0
577 239 24 -2.0
577 241 37 -2.0
577 243 48 2.0
577 243 51 2.0
577 243 54 2.0
577 243 56 2.0
577 243 58 2.0
577 245 67 -2.0
577 189 94 2.0
577 243 188 -2.0
578 238 26 -2.0
578 240 39 -2.0
578 242 53 -2.0
578 244 60 2.0
578 244 63 2.0
578 244 66 2.0
578 244 68 2.0
578 244 70 2.0
578 244 178 -2.0
578 245 190 2.0
579 239 27 -2.0
579 241 40 -2.0
579 243 54 -2.0
579 245 61 2.0
579 245 64 2.0
579 245 67 2.0
579 245 69 2.0
579 245 71 2.0
579 191 95 2.0
579 245 190 -2.0
580 246 20 2.0
580 246 23 2.0
580 246 26 2.0
580 246 28 2.0
580 246 30 2.0
580 248 33 -2.0
580 250 47 -2.0
580 252 60 -2.0
580 246 175 -2.0
580 247 184 2.0
581 247 21 2.0
581 247 24 2.0
581 247 27 2.0
581 247 29 2.0
581 247 31 2.0
581 249 34 -2.0
581 251 48 -2.0
581 253 61 -2.0
581 185 96 2.0
581 247 184 -2.0
582 246 20 -2.0
582 248 33 2.0
582 248 36 2.0
582 248 39 2.0
582 248 42 2.0
582 248 44 2.0
582 250 50 -2.0
582 252 63 -2.0
582 248 176 -2.0
582 249 186 2.0
583 247 21 -2.0
583 249 34 2.0
583 249 37 2.0
583 249 40 2.0
583 249 43 2.0
583 249 45 2.0
583 251 51 -2.0
583 253 64 -2.0
583 187 97 2.0
583 249 186 -2.0
584 246 23 -2.0
584 248 36 -2.0
584 250 47 2.0
584 250 50 2.0
584 250 53 2.0
584 250 55 2.0
584 250 57 2.0
584 252 66 -2.0
584 250 177 -2.0
584 251 188 2.0
585 247 24 -2.0
585 249 37 -2.0
585 251 48 2.0
585 251 51 2.0
585 251 54 2.0
585 251 56 2.0
585 251 58 2.0
585 253 67 -2.0
585 189 98 2.0
585 251 188 -2.0
586 246 26 -2.0
586 248 39 -2.0
586 250 53 -2.0
586 252 60 2.0
586 252 63 2.0
586 252 66 2.0
586 252 68 2.0
586 252 70 2.0
586 252 178 -2.0
586 253 190 2.0
587 247 27 -2.0
587 249 40 -2.0
587 251 54 -2.0
587 253 61 2.0
587 253 64 2.0
587 253 67 2.0
587 253 69 2.0
587 253 71 2.0
587 191 99 2.0
587 253 190 -2.0
588 254 20 -2.0
588 256 33 2.0
588 256 36 2.0
588 256 39 2.0
588 256 42 2.0
588 256 44 2.0
588 258 50 -2.0
588 260 63 -2.0
588 256 176 -2.0
588 257 186 2.0
589 255 21 -2.0
589 257 34 2.0
589 257 37 2.0
589 257 40 2.0
589 257 43 2.0
589 257 45 2.0
589 259 51 -2.0
589 261 64 -2.0
589 187 101 2.0
589 257 186 -2.0
590 254 23 -2.0
590 256 36 -2.0
590 258 47 2.0
590 258 50 2.0
590 258 53 2.0
590 258 55 2.0
590 258 57 2.0
590 260 66 -2.0
590 258 177 -2.0
590 259 188 2.0
591 255 24 -2.0
591 257 37 -2.0
591 259 48 2.0
591 259 51 2.0
591 259 54 2.0
591 259 56 2.0
591 259 58 2.0
591 261 67 -2.0
591 189 102 2.0
591 259 188 -2.0
592 254 26 -2.0
592 256 39 -2.0
592 258 53 -2.0
592 260 60 2.0
592 260 63 2.0
592 260 66 2.0
592 260 68 2.0
592 260 70 2.0
592 260 178 -2.0
592 261 190 2.0
593 255 27 -2.0
593 257 40 -2.0
593 259 54 -2.0
593 261 61 2.0
593 261 64 2.0
593 261 67 2.0
593 261 69 2.0
593 261 71 2.0
593 191 103 2.0
593 261 190 -2.0
594 222 20 2.0
594 222 23 2.0
594 222 26 2.0
594 222 28 2.0
594 222 30 2.0
594 224 33 -2.0
594 226 47 -2.0
594 228 60 -2.0
594 222 175 -2.0
594 223 184 2.0
595 223 21 2.0
595 223 24 2.0
595 223 27 2.0
595 223 29 2.0
595 223 31 2.0
595 225 34 -2.0
595 227 48 -2.0
595 229 61 -2.0
595 185 84 2.0
595 223 184 -2.0
596 254 20 2.0
596 254 23 2.0
596 254 26 2.0
596 254 28 2.0
596 254 30 2.0
596 256 33 -2.0
596 258 47 -2.0
596 260 60 -2.0
596 254 175 -2.0
596 255 184 2.0
597 255 21 2.0
597 255 24 2.0
597 255 27 2.0
597 255 29 2.0
597 255 31 2.0
597 257 34 -2.0
597 259 48 -2.0
597 261 61 -2.0
597 185 100 2.0
597 255 184 -2.0
1444 # number of linear terms in all constraints
1 1 1.0
1 4 1.0
1 7 1.0
1 173 1.0
2 10 1.0
2 13 1.0
2 16 1.0
2 174 1.0
3 10 -1.0
3 19 1.0
3 22 1.0
3 25 1.0
3 32 -1.0
3 46 -1.0
3 59 -1.0
3 175 1.0
4 1 -1.0
4 13 -1.0
4 19 -1.0
4 32 1.0
4 35 1.0
4 38 1.0
4 41 1.0
4 49 -1.0
4 62 -1.0
4 176 1.0
5 4 -1.0
5 16 -1.0
5 22 -1.0
5 35 -1.0
5 46 1.0
5 49 1.0
5 52 1.0
5 65 -1.0
5 177 1.0
6 7 -1.0
6 25 -1.0
6 38 -1.0
6 52 -1.0
6 59 1.0
6 62 1.0
6 65 1.0
6 178 1.0
7 41 -1.0
7 179 1.0
8 2 1.0
8 5 1.0
8 8 1.0
8 173 -1.0
8 180 1.0
9 3 1.0
9 6 1.0
9 9 1.0
9 180 -1.0
9 181 1.0
10 11 1.0
10 14 1.0
10 17 1.0
10 174 -1.0
10 182 1.0
11 12 1.0
11 15 1.0
11 18 1.0
11 182 -1.0
11 183 1.0
12 11 -1.0
12 20 1.0
12 23 1.0
12 26 1.0
12 28 1.0
12 30 1.0
12 33 -1.0
12 47 -1.0
12 60 -1.0
12 175 -1.0
12 184 1.0
13 12 -1.0
13 21 1.0
13 24 1.0
13 27 1.0
13 29 1.0
13 31 1.0
13 34 -1.0
13 48 -1.0
13 61 -1.0
13 184 -1.0
13 185 1.0
14 2 -1.0
14 14 -1.0
14 20 -1.0
14 33 1.0
14 36 1.0
14 39 1.0
14 42 1.0
14 44 1.0
14 50 -1.0
14 63 -1.0
14 176 -1.0
14 186 1.0
15 3 -1.0
15 15 -1.0
15 21 -1.0
15 34 1.0
15 37 1.0
15 40 1.0
15 43 1.0
15 45 1.0
15 51 -1.0
15 64 -1.0
15 186 -1.0
15 187 1.0
16 5 -1.0
16 17 -1.0
16 23 -1.0
16 36 -1.0
16 47 1.0
16 50 1.0
16 53 1.0
16 55 1.0
16 57 1.0
16 66 -1.0
16 177 -1.0
16 188 1.0
17 6 -1.0
17 18 -1.0
17 24 -1.0
17 37 -1.0
17 48 1.0
17 51 1.0
17 54 1.0
17 56 1.0
17 58 1.0
17 67 -1.0
17 188 -1.0
17 189 1.0
18 8 -1.0
18 26 -1.0
18 39 -1.0
18 53 -1.0
18 60 1.0
18 63 1.0
18 66 1.0
18 68 1.0
18 70 1.0
18 178 -1.0
18 190 1.0
19 9 -1.0
19 27 -1.0
19 40 -1.0
19 54 -1.0
19 61 1.0
19 64 1.0
19 67 1.0
19 69 1.0
19 71 1.0
19 190 -1.0
19 191 1.0
20 28 -1.0
20 42 -1.0
20 55 -1.0
20 68 -1.0
20 179 -1.0
20 192 1.0
21 29 -1.0
21 43 -1.0
21 56 -1.0
21 69 -1.0
21 192 -1.0
21 193 1.0
22 30 -1.0
22 44 -1.0
22 57 -1.0
22 70 -1.0
22 194 1.0
23 31 -1.0
23 45 -1.0
23 58 -1.0
23 71 -1.0
23 194 -1.0
23 195 1.0
24 1 1.0
24 104 -1.0
25 2 1.0
25 105 -1.0
26 3 1.0
26 106 -1.0
27 4 1.0
27 107 -1.0
28 5 1.0
28 108 -1.0
29 6 1.0
29 109 -1.0
30 7 1.0
30 110 -1.0
31 8 1.0
31 111 -1.0
32 9 1.0
32 112 -1.0
33 10 1.0
33 113 -1.0
34 11 1.0
34 114 -1.0
35 12 1.0
35 115 -1.0
36 13 1.0
36 116 -1.0
37 14 1.0
37 117 -1.0
38 15 1.0
38 118 -1.0
39 16 1.0
39 119 -1.0
40 17 1.0
40 120 -1.0
41 18 1.0
41 121 -1.0
42 19 1.0
42 122 -1.0
43 20 1.0
43 123 -1.0
44 21 1.0
44 124 -1.0
45 22 1.0
45 125 -1.0
46 23 1.0
46 126 -1.0
47 24 1.0
47 127 -1.0
48 25 1.0
48 128 -1.0
49 26 1.0
49 129 -1.0
50 27 1.0
50 130 -1.0
51 28 1.0
51 131 -1.0
52 29 1.0
52 132 -1.0
53 30 1.0
53 133 -1.0
54 31 1.0
54 134 -1.0
55 32 1.0
55 135 -1.0
56 33 1.0
56 136 -1.0
57 34 1.0
57 137 -1.0
58 35 1.0
58 138 -1.0
59 36 1.0
59 139 -1.0
60 37 1.0
60 140 -1.0
61 38 1.0
61 141 -1.0
62 39 1.0
62 142 -1.0
63 40 1.0
63 143 -1.0
64 41 1.0
64 144 -1.0
65 42 1.0
65 145 -1.0
66 43 1.0
66 146 -1.0
67 44 1.0
67 147 -1.0
68 45 1.0
68 148 -1.0
69 46 1.0
69 149 -1.0
70 47 1.0
70 150 -1.0
71 48 1.0
71 151 -1.0
72 49 1.0
72 152 -1.0
73 50 1.0
73 153 -1.0
74 51 1.0
74 154 -1.0
75 52 1.0
75 155 -1.0
76 53 1.0
76 156 -1.0
77 54 1.0
77 157 -1.0
78 55 1.0
78 158 -1.0
79 56 1.0
79 159 -1.0
80 57 1.0
80 196 -1.0
81 58 1.0
81 197 -1.0
82 59 1.0
82 160 -1.0
83 60 1.0
83 161 -1.0
84 61 1.0
84 162 -1.0
85 62 1.0
85 163 -1.0
86 63 1.0
86 164 -1.0
87 64 1.0
87 165 -1.0
88 65 1.0
88 166 -1.0
89 66 1.0
89 167 -1.0
90 67 1.0
90 168 -1.0
91 68 1.0
91 169 -1.0
92 69 1.0
92 170 -1.0
93 70 1.0
93 171 -1.0
94 71 1.0
94 172 -1.0
95 133 0.1
95 198 -1.0
96 134 0.1
96 199 -1.0
97 147 0.1
97 200 -1.0
98 148 0.1
98 201 -1.0
99 196 0.1
99 202 -1.0
100 197 0.1
100 203 -1.0
101 171 0.1
101 204 -1.0
102 172 0.1
102 205 -1.0
103 131 0.5
103 206 -1.0
104 132 0.5
104 207 -1.0
105 133 0.1
105 206 -1.0
106 134 0.1
106 207 -1.0
107 145 0.5
107 208 -1.0
108 146 0.5
108 209 -1.0
109 147 0.1
109 208 -1.0
110 148 0.1
110 209 -1.0
111 158 0.5
111 210 -1.0
112 159 0.5
112 211 -1.0
113 196 0.1
113 210 -1.0
114 197 0.1
114 211 -1.0
115 169 0.5
115 212 -1.0
116 170 0.5
116 213 -1.0
117 171 0.1
117 212 -1.0
118 172 0.1
118 213 -1.0
119 131 0.05
119 214 -1.0
120 132 0.05
120 215 -1.0
121 133 0.13
121 214 -1.0
122 134 0.13
122 215 -1.0
123 145 0.05
123 216 -1.0
124 146 0.05
124 217 -1.0
125 147 0.13
125 216 -1.0
126 148 0.13
126 217 -1.0
127 158 0.05
127 218 -1.0
128 159 0.05
128 219 -1.0
129 196 0.13
129 218 -1.0
130 197 0.13
130 219 -1.0
131 169 0.05
131 220 -1.0
132 170 0.05
132 221 -1.0
133 171 0.13
133 220 -1.0
134 172 0.13
134 221 -1.0
135 131 0.48
135 222 -1.0
136 132 0.48
136 223 -1.0
137 133 0.09
137 222 -1.0
138 134 0.09
138 223 -1.0
139 145 0.48
139 224 -1.0
140 146 0.48
140 225 -1.0
141 147 0.09
141 224 -1.0
142 148 0.09
142 225 -1.0
143 158 0.48
143 226 -1.0
144 159 0.48
144 227 -1.0
145 196 0.09
145 226 -1.0
146 197 0.09
146 227 -1.0
147 169 0.48
147 228 -1.0
148 170 0.48
148 229 -1.0
149 171 0.09
149 228 -1.0
150 172 0.09
150 229 -1.0
151 133 0.16
151 230 -1.0
152 134 0.16
152 231 -1.0
153 147 0.16
153 232 -1.0
154 148 0.16
154 233 -1.0
155 196 0.16
155 234 -1.0
156 197 0.16
156 235 -1.0
157 171 0.16
157 236 -1.0
158 172 0.16
158 237 -1.0
159 131 0.51
159 238 -1.0
160 132 0.51
160 239 -1.0
161 133 0.07
161 238 -1.0
162 134 0.07
162 239 -1.0
163 145 0.51
163 240 -1.0
164 146 0.51
164 241 -1.0
165 147 0.07
165 240 -1.0
166 148 0.07
166 241 -1.0
167 158 0.51
167 242 -1.0
168 159 0.51
168 243 -1.0
169 196 0.07
169 242 -1.0
170 197 0.07
170 243 -1.0
171 169 0.51
171 244 -1.0
172 170 0.51
172 245 -1.0
173 171 0.07
173 244 -1.0
174 172 0.07
174 245 -1.0
175 131 0.06
175 246 -1.0
176 132 0.06
176 247 -1.0
177 133 0.17
177 246 -1.0
178 134 0.17
178 247 -1.0
179 145 0.06
179 248 -1.0
180 146 0.06
180 249 -1.0
181 147 0.17
181 248 -1.0
182 148 0.17
182 249 -1.0
183 158 0.06
183 250 -1.0
184 159 0.06
184 251 -1.0
185 196 0.17
185 250 -1.0
186 197 0.17
186 251 -1.0
187 169 0.06
187 252 -1.0
188 170 0.06
188 253 -1.0
189 171 0.17
189 252 -1.0
190 172 0.17
190 253 -1.0
191 131 0.47
191 254 -1.0
192 132 0.47
192 255 -1.0
193 133 0.11
193 254 -1.0
194 134 0.11
194 255 -1.0
195 145 0.47
195 256 -1.0
196 146 0.47
196 257 -1.0
197 147 0.11
197 256 -1.0
198 148 0.11
198 257 -1.0
199 158 0.47
199 258 -1.0
200 159 0.47
200 259 -1.0
201 196 0.11
201 258 -1.0
202 197 0.11
202 259 -1.0
203 169 0.47
203 260 -1.0
204 170 0.47
204 261 -1.0
205 171 0.11
205 260 -1.0
206 172 0.11
206 261 -1.0
207 133 -0.2
207 206 -1.0
208 134 -0.2
208 207 -1.0
209 147 -0.2
209 208 -1.0
210 148 -0.2
210 209 -1.0
211 196 -0.2
211 210 -1.0
212 197 -0.2
212 211 -1.0
213 171 -0.2
213 212 -1.0
214 172 -0.2
214 213 -1.0
215 131 -0.05
215 214 -1.0
216 132 -0.05
216 215 -1.0
217 145 -0.05
217 216 -1.0
218 146 -0.05
218 217 -1.0
219 158 -0.05
219 218 -1.0
220 159 -0.05
220 219 -1.0
221 169 -0.05
221 220 -1.0
222 170 -0.05
222 221 -1.0
223 133 -0.12
223 222 -1.0
224 134 -0.12
224 223 -1.0
225 147 -0.12
225 224 -1.0
226 148 -0.12
226 225 -1.0
227 196 -0.12
227 226 -1.0
228 197 -0.12
228 227 -1.0
229 171 -0.12
229 228 -1.0
230 172 -0.12
230 229 -1.0
231 131 -0.1
231 230 -1.0
232 132 -0.1
232 231 -1.0
233 145 -0.1
233 232 -1.0
234 146 -0.1
234 233 -1.0
235 158 -0.1
235 234 -1.0
236 159 -0.1
236 235 -1.0
237 169 -0.1
237 236 -1.0
238 170 -0.1
238 237 -1.0
239 133 -0.23
239 238 -1.0
240 134 -0.23
240 239 -1.0
241 147 -0.23
241 240 -1.0
242 148 -0.23
242 241 -1.0
243 196 -0.23
243 242 -1.0
244 197 -0.23
244 243 -1.0
245 171 -0.23
245 244 -1.0
246 172 -0.23
246 245 -1.0
247 133 -0.12
247 246 -1.0
248 134 -0.12
248 247 -1.0
249 147 -0.12
249 248 -1.0
250 148 -0.12
250 249 -1.0
251 196 -0.12
251 250 -1.0
252 197 -0.12
252 251 -1.0
253 171 -0.12
253 252 -1.0
254 172 -0.12
254 253 -1.0
255 133 -0.1
255 254 -1.0
256 134 -0.1
256 255 -1.0
257 147 -0.1
257 256 -1.0
258 148 -0.1
258 257 -1.0
259 196 -0.1
259 258 -1.0
260 197 -0.1
260 259 -1.0
261 171 -0.1
261 260 -1.0
262 172 -0.1
262 261 -1.0
263 113 1.0
263 122 1.0
264 114 1.0
264 123 1.0
265 115 1.0
265 124 1.0
266 113 1.0
266 125 1.0
267 114 1.0
267 126 1.0
268 115 1.0
268 127 1.0
269 113 1.0
269 128 1.0
270 114 1.0
270 129 1.0
271 115 1.0
271 130 1.0
272 114 1.0
272 131 1.0
273 115 1.0
273 132 1.0
274 114 1.0
274 133 1.0
275 115 1.0
275 134 1.0
276 122 1.0
276 135 1.0
277 123 1.0
277 136 1.0
278 124 1.0
278 137 1.0
279 125 1.0
279 135 1.0
280 126 1.0
280 136 1.0
281 127 1.0
281 137 1.0
282 128 1.0
282 135 1.0
283 129 1.0
283 136 1.0
284 130 1.0
284 137 1.0
285 131 1.0
285 136 1.0
286 132 1.0
286 137 1.0
287 133 1.0
287 136 1.0
288 134 1.0
288 137 1.0
289 122 1.0
289 149 1.0
290 123 1.0
290 150 1.0
291 124 1.0
291 151 1.0
292 125 1.0
292 149 1.0
293 126 1.0
293 150 1.0
294 127 1.0
294 151 1.0
295 128 1.0
295 149 1.0
296 129 1.0
296 150 1.0
297 130 1.0
297 151 1.0
298 131 1.0
298 150 1.0
299 132 1.0
299 151 1.0
300 133 1.0
300 150 1.0
301 134 1.0
301 151 1.0
302 122 1.0
302 160 1.0
303 123 1.0
303 161 1.0
304 124 1.0
304 162 1.0
305 125 1.0
305 160 1.0
306 126 1.0
306 161 1.0
307 127 1.0
307 162 1.0
308 128 1.0
308 160 1.0
309 129 1.0
309 161 1.0
310 130 1.0
310 162 1.0
311 131 1.0
311 161 1.0
312 132 1.0
312 162 1.0
313 133 1.0
313 161 1.0
314 134 1.0
314 162 1.0
315 104 1.0
315 135 1.0
316 105 1.0
316 136 1.0
317 106 1.0
317 137 1.0
318 104 1.0
318 138 1.0
319 105 1.0
319 139 1.0
320 106 1.0
320 140 1.0
321 104 1.0
321 141 1.0
322 105 1.0
322 142 1.0
323 106 1.0
323 143 1.0
324 104 1.0
324 144 1.0
325 105 1.0
325 145 1.0
326 106 1.0
326 146 1.0
327 105 1.0
327 147 1.0
328 106 1.0
328 148 1.0
329 116 1.0
329 135 1.0
330 117 1.0
330 136 1.0
331 118 1.0
331 137 1.0
332 116 1.0
332 138 1.0
333 117 1.0
333 139 1.0
334 118 1.0
334 140 1.0
335 116 1.0
335 141 1.0
336 117 1.0
336 142 1.0
337 118 1.0
337 143 1.0
338 116 1.0
338 144 1.0
339 117 1.0
339 145 1.0
340 118 1.0
340 146 1.0
341 117 1.0
341 147 1.0
342 118 1.0
342 148 1.0
343 122 1.0
343 135 1.0
344 123 1.0
344 136 1.0
345 124 1.0
345 137 1.0
346 122 1.0
346 138 1.0
347 123 1.0
347 139 1.0
348 124 1.0
348 140 1.0
349 122 1.0
349 141 1.0
350 123 1.0
350 142 1.0
351 124 1.0
351 143 1.0
352 122 1.0
352 144 1.0
353 123 1.0
353 145 1.0
354 124 1.0
354 146 1.0
355 123 1.0
355 147 1.0
356 124 1.0
356 148 1.0
357 135 1.0
357 152 1.0
358 136 1.0
358 153 1.0
359 137 1.0
359 154 1.0
360 138 1.0
360 152 1.0
361 139 1.0
361 153 1.0
362 140 1.0
362 154 1.0
363 141 1.0
363 152 1.0
364 142 1.0
364 153 1.0
365 143 1.0
365 154 1.0
366 144 1.0
366 152 1.0
367 145 1.0
367 153 1.0
368 146 1.0
368 154 1.0
369 147 1.0
369 153 1.0
370 148 1.0
370 154 1.0
371 135 1.0
371 163 1.0
372 136 1.0
372 164 1.0
373 137 1.0
373 165 1.0
374 138 1.0
374 163 1.0
375 139 1.0
375 164 1.0
376 140 1.0
376 165 1.0
377 141 1.0
377 163 1.0
378 142 1.0
378 164 1.0
379 143 1.0
379 165 1.0
380 144 1.0
380 163 1.0
381 145 1.0
381 164 1.0
382 146 1.0
382 165 1.0
383 147 1.0
383 164 1.0
384 148 1.0
384 165 1.0
385 107 1.0
385 149 1.0
386 108 1.0
386 150 1.0
387 109 1.0
387 151 1.0
388 107 1.0
388 152 1.0
389 108 1.0
389 153 1.0
390 109 1.0
390 154 1.0
391 107 1.0
391 155 1.0
392 108 1.0
392 156 1.0
393 109 1.0
393 157 1.0
394 108 1.0
394 158 1.0
395 109 1.0
395 159 1.0
396 108 1.0
396 196 1.0
397 109 1.0
397 197 1.0
398 119 1.0
398 149 1.0
399 120 1.0
399 150 1.0
400 121 1.0
400 151 1.0
401 119 1.0
401 152 1.0
402 120 1.0
402 153 1.0
403 121 1.0
403 154 1.0
404 119 1.0
404 155 1.0
405 120 1.0
405 156 1.0
406 121 1.0
406 157 1.0
407 120 1.0
407 158 1.0
408 121 1.0
408 159 1.0
409 120 1.0
409 196 1.0
410 121 1.0
410 197 1.0
411 125 1.0
411 149 1.0
412 126 1.0
412 150 1.0
413 127 1.0
413 151 1.0
414 125 1.0
414 152 1.0
415 126 1.0
415 153 1.0
416 127 1.0
416 154 1.0
417 125 1.0
417 155 1.0
418 126 1.0
418 156 1.0
419 127 1.0
419 157 1.0
420 126 1.0
420 158 1.0
421 127 1.0
421 159 1.0
422 126 1.0
422 196 1.0
423 127 1.0
423 197 1.0
424 138 1.0
424 149 1.0
425 139 1.0
425 150 1.0
426 140 1.0
426 151 1.0
427 138 1.0
427 152 1.0
428 139 1.0
428 153 1.0
429 140 1.0
429 154 1.0
430 138 1.0
430 155 1.0
431 139 1.0
431 156 1.0
432 140 1.0
432 157 1.0
433 139 1.0
433 158 1.0
434 140 1.0
434 159 1.0
435 139 1.0
435 196 1.0
436 140 1.0
436 197 1.0
437 149 1.0
437 166 1.0
438 150 1.0
438 167 1.0
439 151 1.0
439 168 1.0
440 152 1.0
440 166 1.0
441 153 1.0
441 167 1.0
442 154 1.0
442 168 1.0
443 155 1.0
443 166 1.0
444 156 1.0
444 167 1.0
445 157 1.0
445 168 1.0
446 158 1.0
446 167 1.0
447 159 1.0
447 168 1.0
448 167 1.0
448 196 1.0
449 168 1.0
449 197 1.0
450 110 1.0
450 160 1.0
451 111 1.0
451 161 1.0
452 112 1.0
452 162 1.0
453 110 1.0
453 163 1.0
454 111 1.0
454 164 1.0
455 112 1.0
455 165 1.0
456 110 1.0
456 166 1.0
457 111 1.0
457 167 1.0
458 112 1.0
458 168 1.0
459 111 1.0
459 169 1.0
460 112 1.0
460 170 1.0
461 111 1.0
461 171 1.0
462 112 1.0
462 172 1.0
463 128 1.0
463 160 1.0
464 129 1.0
464 161 1.0
465 130 1.0
465 162 1.0
466 128 1.0
466 163 1.0
467 129 1.0
467 164 1.0
468 130 1.0
468 165 1.0
469 128 1.0
469 166 1.0
470 129 1.0
470 167 1.0
471 130 1.0
471 168 1.0
472 129 1.0
472 169 1.0
473 130 1.0
473 170 1.0
474 129 1.0
474 171 1.0
475 130 1.0
475 172 1.0
476 141 1.0
476 160 1.0
477 142 1.0
477 161 1.0
478 143 1.0
478 162 1.0
479 141 1.0
479 163 1.0
480 142 1.0
480 164 1.0
481 143 1.0
481 165 1.0
482 141 1.0
482 166 1.0
483 142 1.0
483 167 1.0
484 143 1.0
484 168 1.0
485 142 1.0
485 169 1.0
486 143 1.0
486 170 1.0
487 142 1.0
487 171 1.0
488 143 1.0
488 172 1.0
489 155 1.0
489 160 1.0
490 156 1.0
490 161 1.0
491 157 1.0
491 162 1.0
492 155 1.0
492 163 1.0
493 156 1.0
493 164 1.0
494 157 1.0
494 165 1.0
495 155 1.0
495 166 1.0
496 156 1.0
496 167 1.0
497 157 1.0
497 168 1.0
498 156 1.0
498 169 1.0
499 157 1.0
499 170 1.0
500 156 1.0
500 171 1.0
501 157 1.0
501 172 1.0
502 10 -0.9
502 19 0.7
502 22 0.7
502 25 0.7
502 32 -0.8
502 46 -0.7
502 59 -0.7
503 1 -0.7
503 13 -0.9
503 19 -0.7
503 32 0.8
503 35 0.8
503 38 0.8
503 41 0.8
503 49 -0.7
503 62 -0.7
504 4 -0.7
504 16 -0.9
504 22 -0.7
504 35 -0.8
504 46 0.7
504 49 0.7
504 52 0.7
504 65 -0.7
505 7 -0.7
505 25 -0.7
505 38 -0.8
505 52 -0.7
505 59 0.7
505 62 0.7
505 65 0.7
506 10 -0.01
506 32 -0.9
506 46 -0.8
506 59 -0.3
507 1 -0.2
507 13 -0.01
507 32 0.9
507 35 0.9
507 38 0.9
507 41 0.9
507 49 -0.8
507 62 -0.3
508 4 -0.2
508 16 -0.01
508 35 -0.9
508 46 0.8
508 49 0.8
508 52 0.8
508 65 -0.3
509 7 -0.2
509 38 -0.9
509 52 -0.8
509 59 0.3
509 62 0.3
509 65 0.3
510 10 -0.88
510 19 0.68
510 22 0.68
510 25 0.68
510 32 -0.81
510 46 -0.71
510 59 -0.66
511 1 -0.69
511 13 -0.88
511 19 -0.68
511 32 0.81
511 35 0.81
511 38 0.81
511 41 0.81
511 49 -0.71
511 62 -0.66
512 4 -0.69
512 16 -0.88
512 22 -0.68
512 35 -0.81
512 46 0.71
512 49 0.71
512 52 0.71
512 65 -0.66
513 7 -0.69
513 25 -0.68
513 38 -0.81
513 52 -0.71
513 59 0.66
513 62 0.66
513 65 0.66
514 19 0.01
514 22 0.01
514 25 0.01
514 32 -0.9
514 46 -0.8
514 59 -0.4
515 1 -0.18
515 19 -0.01
515 32 0.9
515 35 0.9
515 38 0.9
515 41 0.9
515 49 -0.8
515 62 -0.4
516 4 -0.18
516 22 -0.01
516 35 -0.9
516 46 0.8
516 49 0.8
516 52 0.8
516 65 -0.4
517 7 -0.18
517 25 -0.01
517 38 -0.9
517 52 -0.8
517 59 0.4
517 62 0.4
517 65 0.4
518 10 -0.92
518 19 0.72
518 22 0.72
518 25 0.72
518 32 -0.79
518 46 -0.73
518 59 -0.8
519 1 -0.72
519 13 -0.92
519 19 -0.72
519 32 0.79
519 35 0.79
519 38 0.79
519 41 0.79
519 49 -0.73
519 62 -0.8
520 4 -0.72
520 16 -0.92
520 22 -0.72
520 35 -0.79
520 46 0.73
520 49 0.73
520 52 0.73
520 65 -0.8
521 7 -0.72
521 25 -0.72
521 38 -0.79
521 52 -0.73
521 59 0.8
521 62 0.8
521 65 0.8
522 10 -0.05
522 32 -0.92
522 46 -0.21
522 59 -0.29
523 1 -0.22
523 13 -0.05
523 32 0.92
523 35 0.92
523 38 0.92
523 41 0.92
523 49 -0.21
523 62 -0.29
524 4 -0.22
524 16 -0.05
524 35 -0.92
524 46 0.21
524 49 0.21
524 52 0.21
524 65 -0.29
525 7 -0.22
525 38 -0.92
525 52 -0.21
525 59 0.29
525 62 0.29
525 65 0.29
526 10 -0.87
526 19 0.66
526 22 0.66
526 25 0.66
526 32 -0.78
526 46 -0.75
526 59 -0.7
527 1 -0.68
527 13 -0.87
527 19 -0.66
527 32 0.78
527 35 0.78
527 38 0.78
527 41 0.78
527 49 -0.75
527 62 -0.7
528 4 -0.68
528 16 -0.87
528 22 -0.66
528 35 -0.78
528 46 0.75
528 49 0.75
528 52 0.75
528 65 -0.7
529 7 -0.68
529 25 -0.66
529 38 -0.78
529 52 -0.75
529 59 0.7
529 62 0.7
529 65 0.7
530 32 -0.91
530 46 -0.89
530 59 -0.43
531 1 -0.21
531 32 0.91
531 35 0.91
531 38 0.91
531 41 0.91
531 49 -0.89
531 62 -0.43
532 4 -0.21
532 35 -0.91
532 46 0.89
532 49 0.89
532 52 0.89
532 65 -0.43
533 7 -0.21
533 38 -0.91
533 52 -0.89
533 59 0.43
533 62 0.43
533 65 0.43
534 11 -0.9
535 12 -0.9
536 2 -0.7
536 14 -0.9
537 3 -0.7
537 15 -0.9
538 5 -0.7
538 17 -0.9
539 6 -0.7
539 18 -0.9
540 8 -0.7
541 9 -0.7
542 11 -0.01
543 12 -0.01
544 2 -0.2
544 14 -0.01
545 3 -0.2
545 15 -0.01
546 5 -0.2
546 17 -0.01
547 6 -0.2
547 18 -0.01
548 8 -0.2
549 9 -0.2
550 11 -0.88
551 12 -0.88
552 2 -0.69
552 14 -0.88
553 3 -0.69
553 15 -0.88
554 5 -0.69
554 17 -0.88
555 6 -0.69
555 18 -0.88
556 8 -0.69
557 9 -0.69
558 2 -0.18
559 3 -0.18
560 5 -0.18
561 6 -0.18
562 8 -0.18
563 9 -0.18
564 11 -0.92
565 12 -0.92
566 2 -0.72
566 14 -0.92
567 3 -0.72
567 15 -0.92
568 5 -0.72
568 17 -0.92
569 6 -0.72
569 18 -0.92
570 8 -0.72
571 9 -0.72
572 11 -0.05
573 12 -0.05
574 2 -0.22
574 14 -0.05
575 3 -0.22
575 15 -0.05
576 5 -0.22
576 17 -0.05
577 6 -0.22
577 18 -0.05
578 8 -0.22
579 9 -0.22
580 11 -0.87
581 12 -0.87
582 2 -0.68
582 14 -0.87
583 3 -0.68
583 15 -0.87
584 5 -0.68
584 17 -0.87
585 6 -0.68
585 18 -0.87
586 8 -0.68
587 9 -0.68
588 2 -0.21
589 3 -0.21
590 5 -0.21
591 6 -0.21
592 8 -0.21
593 9 -0.21
1.79769313486232E+308 # value for infinity
-1.79769313486232E+308 # default left-hand-side value
175 # number of non-default left-hand-sides
1 1.9
2 1.8
3 0.3
4 1.8
5 1.3
6 0.2
7 -0.35
8 0.1
9 0.7
10 0.8
11 0.3
12 0.0
13 0.0
14 0.0
15 0.0
16 0.0
17 0.0
18 0.0
19 0.0
20 -0.44
21 -0.77
22 0.69
23 -0.8
207 -0.9
208 -0.9
209 -0.9
210 -0.9
211 -0.9
212 -0.9
213 -0.9
214 -0.9
215 -1.0
216 -1.0
217 -1.0
218 -1.0
219 -1.0
220 -1.0
221 -1.0
222 -1.0
223 -0.92
224 -0.92
225 -0.92
226 -0.92
227 -0.92
228 -0.92
229 -0.92
230 -0.92
231 -0.99
232 -0.99
233 -0.99
234 -0.99
235 -0.99
236 -0.99
237 -0.99
238 -0.99
239 -0.96
240 -0.96
241 -0.96
242 -0.96
243 -0.96
244 -0.96
245 -0.96
246 -0.96
247 -1.0
248 -1.0
249 -1.0
250 -1.0
251 -1.0
252 -1.0
253 -1.0
254 -1.0
255 -0.91
256 -0.91
257 -0.91
258 -0.91
259 -0.91
260 -0.91
261 -0.91
262 -0.91
502 0.21
503 1.44
504 0.91
505 0.14
506 0.0
507 1.62
508 1.04
509 0.06
510 0.204
511 1.458
512 0.923
513 0.132
514 0.003
515 1.62
516 1.04
517 0.08
518 0.216
519 1.422
520 0.949
521 0.16
522 0.0
523 1.656
524 0.273
525 0.058
526 0.198
527 1.404
528 0.975
529 0.14
530 0.0
531 1.638
532 1.157
533 0.086
534 0.0
535 0.0
536 0.0
537 0.0
538 0.0
539 0.0
540 0.0
541 0.0
542 0.0
543 0.0
544 0.0
545 0.0
546 0.0
547 0.0
548 0.0
549 0.0
550 0.0
551 0.0
552 0.0
553 0.0
554 0.0
555 0.0
556 0.0
557 0.0
558 0.0
559 0.0
560 0.0
561 0.0
562 0.0
563 0.0
564 0.0
565 0.0
566 0.0
567 0.0
568 0.0
569 0.0
570 0.0
571 0.0
572 0.0
573 0.0
574 0.0
575 0.0
576 0.0
577 0.0
578 0.0
579 0.0
580 0.0
581 0.0
582 0.0
583 0.0
584 0.0
585 0.0
586 0.0
587 0.0
588 0.0
589 0.0
590 0.0
591 0.0
592 0.0
593 0.0
594 0.0
595 0.0
596 0.0
597 0.0
1.0 # default right-hand-side value
358 # number of non-default right-hand-sides
1 1.9
2 1.8
3 0.3
4 1.8
5 1.3
6 0.2
7 -0.35
8 0.1
9 0.7
10 0.8
11 0.3
12 0.0
13 0.0
14 0.0
15 0.0
16 0.0
17 0.0
18 0.0
19 0.0
20 -0.44
21 -0.77
22 0.69
23 -0.8
24 0.0
25 0.0
26 0.0
27 0.0
28 0.0
29 0.0
30 0.0
31 0.0
32 0.0
33 0.0
34 0.0
35 0.0
36 0.0
37 0.0
38 0.0
39 0.0
40 0.0
41 0.0
42 0.0
43 0.0
44 0.0
45 0.0
46 0.0
47 0.0
48 0.0
49 0.0
50 0.0
51 0.0
52 0.0
53 0.0
54 0.0
55 0.0
56 0.0
57 0.0
58 0.0
59 0.0
60 0.0
61 0.0
62 0.0
63 0.0
64 0.0
65 0.0
66 0.0
67 0.0
68 0.0
69 0.0
70 0.0
71 0.0
72 0.0
73 0.0
74 0.0
75 0.0
76 0.0
77 0.0
78 0.0
79 0.0
80 0.0
81 0.0
82 0.0
83 0.0
84 0.0
85 0.0
86 0.0
87 0.0
88 0.0
89 0.0
90 0.0
91 0.0
92 0.0
93 0.0
94 0.0
95 -0.7
96 -0.7
97 -0.7
98 -0.7
99 -0.7
100 -0.7
101 -0.7
102 -0.7
103 0.0
104 0.0
105 0.0
106 0.0
107 0.0
108 0.0
109 0.0
110 0.0
111 0.0
112 0.0
113 0.0
114 0.0
115 0.0
116 0.0
117 0.0
118 0.0
119 -0.66
120 -0.66
121 -0.66
122 -0.66
123 -0.66
124 -0.66
125 -0.66
126 -0.66
127 -0.66
128 -0.66
129 -0.66
130 -0.66
131 -0.66
132 -0.66
133 -0.66
134 -0.66
135 0.0
136 0.0
137 0.0
138 0.0
139 0.0
140 0.0
141 0.0
142 0.0
143 0.0
144 0.0
145 0.0
146 0.0
147 0.0
148 0.0
149 0.0
150 0.0
151 -0.67
152 -0.67
153 -0.67
154 -0.67
155 -0.67
156 -0.67
157 -0.67
158 -0.67
159 0.0
160 0.0
161 0.0
162 0.0
163 0.0
164 0.0
165 0.0
166 0.0
167 0.0
168 0.0
169 0.0
170 0.0
171 0.0
172 0.0
173 0.0
174 0.0
175 -0.66
176 -0.66
177 -0.66
178 -0.66
179 -0.66
180 -0.66
181 -0.66
182 -0.66
183 -0.66
184 -0.66
185 -0.66
186 -0.66
187 -0.66
188 -0.66
189 -0.66
190 -0.66
191 0.0
192 0.0
193 0.0
194 0.0
195 0.0
196 0.0
197 0.0
198 0.0
199 0.0
200 0.0
201 0.0
202 0.0
203 0.0
204 0.0
205 0.0
206 0.0
207 1.79769313486232E+308
208 1.79769313486232E+308
209 1.79769313486232E+308
210 1.79769313486232E+308
211 1.79769313486232E+308
212 1.79769313486232E+308
213 1.79769313486232E+308
214 1.79769313486232E+308
215 1.79769313486232E+308
216 1.79769313486232E+308
217 1.79769313486232E+308
218 1.79769313486232E+308
219 1.79769313486232E+308
220 1.79769313486232E+308
221 1.79769313486232E+308
222 1.79769313486232E+308
223 1.79769313486232E+308
224 1.79769313486232E+308
225 1.79769313486232E+308
226 1.79769313486232E+308
227 1.79769313486232E+308
228 1.79769313486232E+308
229 1.79769313486232E+308
230 1.79769313486232E+308
231 1.79769313486232E+308
232 1.79769313486232E+308
233 1.79769313486232E+308
234 1.79769313486232E+308
235 1.79769313486232E+308
236 1.79769313486232E+308
237 1.79769313486232E+308
238 1.79769313486232E+308
239 1.79769313486232E+308
240 1.79769313486232E+308
241 1.79769313486232E+308
242 1.79769313486232E+308
243 1.79769313486232E+308
244 1.79769313486232E+308
245 1.79769313486232E+308
246 1.79769313486232E+308
247 1.79769313486232E+308
248 1.79769313486232E+308
249 1.79769313486232E+308
250 1.79769313486232E+308
251 1.79769313486232E+308
252 1.79769313486232E+308
253 1.79769313486232E+308
254 1.79769313486232E+308
255 1.79769313486232E+308
256 1.79769313486232E+308
257 1.79769313486232E+308
258 1.79769313486232E+308
259 1.79769313486232E+308
260 1.79769313486232E+308
261 1.79769313486232E+308
262 1.79769313486232E+308
502 0.21
503 1.44
504 0.91
505 0.14
506 0.0
507 1.62
508 1.04
509 0.06
510 0.204
511 1.458
512 0.923
513 0.132
514 0.003
515 1.62
516 1.04
517 0.08
518 0.216
519 1.422
520 0.949
521 0.16
522 0.0
523 1.656
524 0.273
525 0.058
526 0.198
527 1.404
528 0.975
529 0.14
530 0.0
531 1.638
532 1.157
533 0.086
534 0.0
535 0.0
536 0.0
537 0.0
538 0.0
539 0.0
540 0.0
541 0.0
542 0.0
543 0.0
544 0.0
545 0.0
546 0.0
547 0.0
548 0.0
549 0.0
550 0.0
551 0.0
552 0.0
553 0.0
554 0.0
555 0.0
556 0.0
557 0.0
558 0.0
559 0.0
560 0.0
561 0.0
562 0.0
563 0.0
564 0.0
565 0.0
566 0.0
567 0.0
568 0.0
569 0.0
570 0.0
571 0.0
572 0.0
573 0.0
574 0.0
575 0.0
576 0.0
577 0.0
578 0.0
579 0.0
580 0.0
581 0.0
582 0.0
583 0.0
584 0.0
585 0.0
586 0.0
587 0.0
588 0.0
589 0.0
590 0.0
591 0.0
592 0.0
593 0.0
594 0.0
595 0.0
596 0.0
597 0.0
0.0 # default variable lower bound value
48 # number of non-default variable lower bounds
72 0.7
73 0.7
74 0.7
75 0.7
80 0.66
81 0.66
82 0.66
83 0.66
88 0.67
89 0.67
90 0.67
91 0.67
96 0.66
97 0.66
98 0.66
99 0.66
198 0.7
199 0.7
200 0.7
201 0.7
202 0.7
203 0.7
204 0.7
205 0.7
214 0.66
215 0.66
216 0.66
217 0.66
218 0.66
219 0.66
220 0.66
221 0.66
230 0.67
231 0.67
232 0.67
233 0.67
234 0.67
235 0.67
236 0.67
237 0.67
246 0.66
247 0.66
248 0.66
249 0.66
250 0.66
251 0.66
252 0.66
253 0.66
1.0 # default variable upper bound value
83 # number of non-default variable upper bounds
76 0.9
77 0.9
78 0.9
79 0.9
84 0.92
85 0.92
86 0.92
87 0.92
88 0.99
89 0.99
90 0.99
91 0.99
92 0.96
93 0.96
94 0.96
95 0.96
100 0.91
101 0.91
102 0.91
103 0.91
173 2.0
174 2.0
175 2.0
176 2.0
177 2.0
178 2.0
179 2.0
180 2.0
181 2.0
182 2.0
183 2.0
184 2.0
185 2.0
186 2.0
187 2.0
188 2.0
189 2.0
190 2.0
191 2.0
192 2.0
193 2.0
194 2.0
195 2.0
206 0.9
207 0.9
208 0.9
209 0.9
210 0.9
211 0.9
212 0.9
213 0.9
222 0.92
223 0.92
224 0.92
225 0.92
226 0.92
227 0.92
228 0.92
229 0.92
230 0.99
231 0.99
232 0.99
233 0.99
234 0.99
235 0.99
236 0.99
237 0.99
238 0.96
239 0.96
240 0.96
241 0.96
242 0.96
243 0.96
244 0.96
245 0.96
254 0.91
255 0.91
256 0.91
257 0.91
258 0.91
259 0.91
260 0.91
261 0.91
0 # default variable type
71 # number of non-default variable types
104 1
105 1
106 1
107 1
108 1
109 1
110 1
111 1
112 1
113 1
114 1
115 1
116 1
117 1
118 1
119 1
120 1
121 1
122 1
123 1
124 1
125 1
126 1
127 1
128 1
129 1
130 1
131 1
132 1
133 1
134 1
135 1
136 1
137 1
138 1
139 1
140 1
141 1
142 1
143 1
144 1
145 1
146 1
147 1
148 1
149 1
150 1
151 1
152 1
153 1
154 1
155 1
156 1
157 1
158 1
159 1
160 1
161 1
162 1
163 1
164 1
165 1
166 1
167 1
168 1
169 1
170 1
171 1
172 1
196 1
197 1
0.0 # default variable primal value in starting point
48 # number of non-default variable primal values in starting point
72 0.7
73 0.7
74 0.7
75 0.7
80 0.66
81 0.66
82 0.66
83 0.66
88 0.67
89 0.67
90 0.67
91 0.67
96 0.66
97 0.66
98 0.66
99 0.66
198 0.7
199 0.7
200 0.7
201 0.7
202 0.7
203 0.7
204 0.7
205 0.7
214 0.66
215 0.66
216 0.66
217 0.66
218 0.66
219 0.66
220 0.66
221 0.66
230 0.67
231 0.67
232 0.67
233 0.67
234 0.67
235 0.67
236 0.67
237 0.67
246 0.66
247 0.66
248 0.66
249 0.66
250 0.66
251 0.66
252 0.66
253 0.66
0.0 # default constraint dual value in starting point
0 # number of non-default constraint dual values in starting point
0.0 # default variable bound dual value in starting point
0 # number of non-default variable bound dual values in starting point
0 # number of non-default variable names
0 # number of non-default constraint names
